% File represents an instance of a Composite Structure problem to be solved by a CP framework
% Created on 2025-03-26 10:41:42.400
T = 50;
n = 25;
m = 40;
edges = [(1, 2),
(6, 7),
(11, 12),
(16, 17),
(21, 22),
(2, 3),
(7, 8),
(12, 13),
(17, 18),
(23, 22),
(3, 4),
(8, 9),
(13, 14),
(18, 19),
(23, 24),
(4, 5),
(9, 10),
(14, 15),
(19, 20),
(24, 25),
(6, 1),
(11, 6),
(16, 11),
(16, 21),
(7, 2),
(12, 7),
(17, 12),
(17, 22),
(3, 8),
(13, 8),
(18, 13),
(23, 18),
(4, 9),
(14, 9),
(19, 14),
(24, 19),
(5, 10),
(15, 10),
(20, 15),
(25, 20)];
counts = [|8, 10, 8, 8,
|8, 8, 8, 6,
|8, 8, 8, 4,
|8, 8, 8, 2,
|6, 6, 6, 2,
|10, 10, 10, 8,
|8, 8, 8, 8,
|8, 8, 8, 2,
|6, 8, 6, 2,
|6, 4, 6, 2,
|10, 12, 10, 12,
|10, 10, 10, 8,
|10, 8, 10, 4,
|8, 8, 8, 2,
|8, 6, 8, 2,
|12, 12, 12, 14,
|10, 12, 10, 12,
|10, 10, 10, 8,
|10, 8, 10, 4,
|10, 8, 10, 2,
|12, 12, 12, 8,
|10, 10, 10, 8,
|10, 12, 10, 8,
|10, 12, 10, 6,
|10, 12, 10, 4|];
